files/upTests/matrixes5/0001.eprime.solution
language ESSENCE' 1.0
$ minion Nodes: 8
$ minion TotalTime: 0.001719
$ Savile Row TotalTime: 0.371
letting x_ExplicitVarSize_tuple2 be [[[6, 6, 6], 
[6, 6, 7]], 
[[6, 7, 8], 
[6, 6, 8]]]
letting x_ExplicitVarSize_tuple1 be [[[0, 0, 1], 
[0, 0, 1]], 
[[0, 1, 1], 
[0, 0, 1]]]
